750
500
350
348
348
348
347
346
346
345
345
345
345
345
345
345
344
343
343
343
342
342
342
341
341
341
341
340
339
339
339
339
338
338
337
336
336
336
336
335
334
334
334
333
333
332
332
332
331
331
331
331
330
330
330
329
328
328
327
326
326
326
325
325
325
324
324
323
323
323
323
322
322
322
322
321
321
320
320
320
320
319
318
317
317
317
315
315
314
313
313
313
313
313
312
311
310
310
309
309
308
307
306
305
305
305
305
304
304
303
303
303
303
302
302
302
301
301
301
300
300
300
298
297
296
296
296
295
295
294
294
294
293
293
292
292
292
292
291
290
290
290
289
289
288
287
286
285
284
284
283
282
281
281
281
281
281
280
277
277
277
277
276
276
276
276
276
276
276
275
275
275
275
274
274
274
274
274
274
273
273
273
273
273
272
272
272
272
272
271
271
271
271
270
270
269
268
268
267
267
267
266
266
266
266
265
265
265
264
264
263
262
261
261
261
260
259
259
259
258
258
257
256
255
255
255
253
253
253
253
253
252
252
252
250
250
250
250
249
249
248
247
247
246
246
246
245
245
244
244
244
244
244
244
244
243
242
242
242
242
242
241
240
240
240
239
239
239
239
239
238
238
238
237
237
236
235
235
235
234
234
233
233
233
233
232
232
232
232
232
232
231
231
230
230
229
229
229
229
228
227
227
227
226
226
226
226
226
226
226
224
224
224
224
224
223
223
223
223
223
223
222
222
222
222
222
222
221
221
221
221
221
220
220
219
219
218
218
218
218
217
217
217
216
216
215
215
214
214
213
212
210
209
209
209
208
208
208
208
207
206
206
206
206
205
205
204
204
203
202
202
202
202
202
201
200
200
199
198
198
197
197
197
197
195
195
195
195
194
194
194
194
193
193
192
191
190
190
190
189
189
189
189
189
189
189
189
188
188
188
185
185
185
184
184
184
184
184
183
183
183
183
183
182
182
181
179
178
178
177
177
176
176
176
175
175
175
175
175
175
174
174
173
172
172
171
171
171
170
170
170
169
169
169
169
169
169
169
167
167
166
166
165
165
165
165
165
165
163
163
162
162
162
161
161
161
161
161
161
160
160
160
160
160
159
158
158
158
157
157
157
156
156
155
155
155
154
154
154
153
152
152
152
151
150
150
150
149
148
147
147
144
144
144
144
144
143
143
143
143
142
142
142
142
142
141
141
141
140
140
139
139
138
138
137
136
136
136
136
136
136
136
136
135
135
135
135
134
134
133
133
133
132
132
132
132
131
131
131
131
130
130
130
130
129
129
128
128
128
127
127
127
127
126
126
125
125
125
124
124
123
122
122
120
120
120
120
118
117
117
116
116
115
115
115
115
114
114
113
113
112
112
112
112
112
112
112
112
110
110
109
108
107
107
106
106
106
106
106
105
105
105
104
104
104
104
103
103
103
103
102
102
101
100
99
99
98
98
97
96
96
96
95
95
95
95
95
94
94
93
93
93
92
92
92
90
90
89
89
89
89
88
88
88
87
87
87
87
86
85
85
84
83
82
82
81
80
80
80
79
78
77
77
77
77
76
76
75
75
75
75
74
73
73
73
73
73
72
72
72
71
71
71
71
70
70
70
69
68
68
68
68
67
65
65
64
64
63
63
62
62
62
62
61
61
60
60
60
59
58
58
58
58
57
56
56
56
55
55
54
54
54
54
53
53
52
52
52
51
51
50
50
